# Objective value = 1.1932099999999999e+04
I_0_0 2155
I_0_1 3016
I_0_2 2629
I_0_3 2.3710000000000005e+03
I_0_4 2.7290000000000005e+03
I_0_5 2.3230000000000005e+03
I_0_6 3.1840000000000005e+03
I_1_0 55
I_1_1 0
I_1_2 55
I_1_3 55
I_1_4 0
I_1_5 55
I_1_6 0
I_2_0 198
I_2_1 99
I_2_2 1.9799999999999997e+02
I_2_3 198
I_2_4 9.9000000000000043e+01
I_2_5 198
I_2_6 9.8999999999999986e+01
I_3_0 116
I_3_1 58
I_3_2 -1.7053025658242404e-13
I_3_3 1.1599999999999983e+02
I_3_4 5.7999999999999837e+01
I_3_5 116
I_3_6 58
I_4_0 194
I_4_1 97
I_4_2 194
I_4_3 97
I_4_4 194
I_4_5 9.7000000000000057e+01
I_4_6 -1.7763568394002505e-15
I_5_0 92
I_5_1 0
I_5_2 92
I_5_3 92
I_5_4 0
I_5_5 92
I_5_6 0
I_6_0 68
I_6_1 34
I_6_2 1.4210854715202004e-14
I_6_3 68
I_6_4 34
I_6_5 6.7999999999999972e+01
I_6_6 3.3999999999999972e+01
I_7_0 22
I_7_1 11
I_7_2 0
I_7_3 22
I_7_4 1.1000000000000002e+01
I_7_5 2.1999999999999993e+01
I_7_6 1.0999999999999995e+01
I_8_0 83
I_8_1 0
I_8_2 83
I_8_3 0
I_8_4 83
I_8_5 83
I_8_6 -8.6389229103644993e-16
I_9_0 76
I_9_1 0
I_9_2 76
I_9_3 76
I_9_4 0
I_9_5 7.5999999999999986e+01
I_9_6 0
I_10_0 142
I_10_1 71
I_10_2 0
I_10_3 142
I_10_4 142
I_10_5 7.0999999999999986e+01
I_10_6 5.3290705182007514e-15
I_11_0 126
I_11_1 63
I_11_2 2.8421709430404007e-14
I_11_3 126
I_11_4 6.2999999999999837e+01
I_11_5 126
I_11_6 6.2999999999999950e+01
I_12_0 46
I_12_1 0
I_12_2 46
I_12_3 46
I_12_4 0
I_12_5 46
I_12_6 0
I_13_0 10
I_13_1 0
I_13_2 10
I_13_3 10
I_13_4 0
I_13_5 10
I_13_6 -5.2041704279304213e-17
I_14_0 30
I_14_1 0
I_14_2 30
I_14_3 30
I_14_4 0
I_14_5 30
I_14_6 0
I_15_0 36
I_15_1 0
I_15_2 36
I_15_3 0
I_15_4 36
I_15_5 36
I_15_6 7.4940054162198066e-16
q_1_0 0
q_1_1 110
q_1_2 55
q_1_3 0
q_1_4 110
q_1_5 0
q_2_0 0
q_2_1 1.9799999999999994e+02
q_2_2 9.9000000000000028e+01
q_2_3 1.5582937239428706e-13
q_2_4 1.9799999999999997e+02
q_2_5 7.1054273576010019e-15
q_3_0 0
q_3_1 -1.9539925233402755e-13
q_3_2 174
q_3_3 0
q_3_4 1.1600000000000017e+02
q_3_5 0
q_4_0 0
q_4_1 194
q_4_2 0
q_4_3 194
q_4_4 0
q_4_5 -1.7763568394002505e-15
q_5_0 0
q_5_1 184
q_5_2 92
q_5_3 0
q_5_4 184
q_5_5 0
q_6_0 0
q_6_1 0
q_6_2 1.0199999999999999e+02
q_6_3 0
q_6_4 6.7999999999999972e+01
q_6_5 0
q_7_0 0
q_7_1 -8.8817841970012523e-16
q_7_2 33
q_7_3 -4.4408920985006262e-16
q_7_4 2.1999999999999986e+01
q_7_5 1.7763568394002505e-15
q_8_0 0
q_8_1 166
q_8_2 0
q_8_3 166
q_8_4 83
q_8_5 -8.6389229103644993e-16
q_9_0 0
q_9_1 152
q_9_2 76
q_9_3 0
q_9_4 152
q_9_5 1.4210854715202004e-14
q_10_0 0
q_10_1 0
q_10_2 213
q_10_3 71
q_10_4 0
q_10_5 5.3290705182007514e-15
q_11_0 0
q_11_1 0
q_11_2 1.8899999999999997e+02
q_11_3 0
q_11_4 1.2600000000000017e+02
q_11_5 0
q_12_0 0
q_12_1 92
q_12_2 46
q_12_3 0
q_12_4 92
q_12_5 0
q_13_0 0
q_13_1 20
q_13_2 10
q_13_3 0
q_13_4 20
q_13_5 -5.2041704279304213e-17
q_14_0 0
q_14_1 60
q_14_2 30
q_14_3 0
q_14_4 60
q_14_5 0
q_15_0 0
q_15_1 72
q_15_2 0
q_15_3 72
q_15_4 36
q_15_5 7.4940054162198066e-16
y_0_0 0
y_0_1 1
y_0_2 1
y_0_3 1
y_0_4 1
y_0_5 0
y_1_0 0
y_1_1 1
y_1_2 1
y_1_3 0
y_1_4 1
y_1_5 0
y_2_0 0
y_2_1 9.9999999999999967e-01
y_2_2 1
y_2_3 0
y_2_4 1
y_2_5 5.5511151231257827e-17
y_3_0 0
y_3_1 -1.6930901125533637e-15
y_3_2 1
y_3_3 0
y_3_4 1
y_3_5 0
y_4_0 0
y_4_1 1
y_4_2 0
y_4_3 1
y_4_4 0
y_4_5 0
y_5_0 0
y_5_1 1
y_5_2 1
y_5_3 0
y_5_4 1
y_5_5 0
y_6_0 0
y_6_1 0
y_6_2 1
y_6_3 0
y_6_4 9.9999999999999978e-01
y_6_5 0
y_7_0 0
y_7_1 -5.5511151231257827e-17
y_7_2 1
y_7_3 0
y_7_4 1
y_7_5 5.5511151231257827e-17
y_8_0 0
y_8_1 1
y_8_2 0
y_8_3 1
y_8_4 1
y_8_5 -1.0408340855860843e-17
y_9_0 0
y_9_1 1
y_9_2 1
y_9_3 0
y_9_4 9.9999999999999978e-01
y_9_5 0
y_10_0 0
y_10_1 0
y_10_2 1
y_10_3 1
y_10_4 0
y_10_5 2.7755575615628914e-17
y_11_0 0
y_11_1 0
y_11_2 1
y_11_3 0
y_11_4 1
y_11_5 0
y_12_0 0
y_12_1 1
y_12_2 1
y_12_3 0
y_12_4 1
y_12_5 0
y_13_0 0
y_13_1 1
y_13_2 1
y_13_3 0
y_13_4 1
y_13_5 -5.2041704279304213e-18
y_14_0 0
y_14_1 1
y_14_2 1
y_14_3 0
y_14_4 1
y_14_5 0
y_15_0 0
y_15_1 1
y_15_2 0
y_15_3 1
y_15_4 1
y_15_5 2.0816681711721685e-17
x_0_1_0 0
x_0_1_1 0
x_0_1_2 0
x_0_1_3 0
x_0_1_4 0
x_0_1_5 0
x_0_2_0 0
x_0_2_1 0
x_0_2_2 0
x_0_2_3 0
x_0_2_4 0
x_0_2_5 0
x_0_3_0 0
x_0_3_1 0
x_0_3_2 0
x_0_3_3 0
x_0_3_4 0
x_0_3_5 0
x_0_4_0 0
x_0_4_1 1
x_0_4_2 0
x_0_4_3 1
x_0_4_4 0
x_0_4_5 0
x_0_5_0 0
x_0_5_1 1
x_0_5_2 1
x_0_5_3 0
x_0_5_4 1.0000000000000036e+00
x_0_5_5 0
x_0_6_0 0
x_0_6_1 0
x_0_6_2 0
x_0_6_3 0
x_0_6_4 0
x_0_6_5 0
x_0_7_0 0
x_0_7_1 0
x_0_7_2 0
x_0_7_3 0
x_0_7_4 0
x_0_7_5 0
x_0_8_0 0
x_0_8_1 0
x_0_8_2 0
x_0_8_3 0
x_0_8_4 0
x_0_8_5 0
x_0_9_0 0
x_0_9_1 0
x_0_9_2 0
x_0_9_3 0
x_0_9_4 0
x_0_9_5 0
x_0_10_0 0
x_0_10_1 0
x_0_10_2 1
x_0_10_3 1
x_0_10_4 -2.0816681711721685e-17
x_0_10_5 0
x_0_11_0 0
x_0_11_1 0
x_0_11_2 0
x_0_11_3 0
x_0_11_4 0
x_0_11_5 0
x_0_12_0 0
x_0_12_1 0
x_0_12_2 0
x_0_12_3 0
x_0_12_4 0
x_0_12_5 0
x_0_13_0 0
x_0_13_1 0
x_0_13_2 0
x_0_13_3 0
x_0_13_4 0
x_0_13_5 0
x_0_14_0 0
x_0_14_1 0
x_0_14_2 0
x_0_14_3 0
x_0_14_4 0
x_0_14_5 0
x_0_15_0 0
x_0_15_1 0
x_0_15_2 0
x_0_15_3 2.7755575615628914e-17
x_0_15_4 9.9999999999999634e-01
x_0_15_5 0
x_1_2_0 0
x_1_2_1 0
x_1_2_2 0
x_1_2_3 0
x_1_2_4 0
x_1_2_5 0
x_1_3_0 0
x_1_3_1 -1.6930901125533637e-15
x_1_3_2 1
x_1_3_3 0
x_1_3_4 1.0000000000000002e+00
x_1_3_5 0
x_1_4_0 0
x_1_4_1 0
x_1_4_2 0
x_1_4_3 0
x_1_4_4 0
x_1_4_5 0
x_1_5_0 0
x_1_5_1 1.6792123247455493e-15
x_1_5_2 0
x_1_5_3 0
x_1_5_4 0
x_1_5_5 0
x_1_6_0 0
x_1_6_1 0
x_1_6_2 0
x_1_6_3 0
x_1_6_4 -3.3584246494910985e-15
x_1_6_5 0
x_1_7_0 0
x_1_7_1 0
x_1_7_2 0
x_1_7_3 0
x_1_7_4 1
x_1_7_5 0
x_1_8_0 0
x_1_8_1 0
x_1_8_2 0
x_1_8_3 0
x_1_8_4 0
x_1_8_5 0
x_1_9_0 0
x_1_9_1 1
x_1_9_2 0
x_1_9_3 0
x_1_9_4 0
x_1_9_5 0
x_1_10_0 0
x_1_10_1 0
x_1_10_2 0
x_1_10_3 0
x_1_10_4 0
x_1_10_5 0
x_1_11_0 0
x_1_11_1 0
x_1_11_2 0
x_1_11_3 0
x_1_11_4 0
x_1_11_5 0
x_1_12_0 0
x_1_12_1 1
x_1_12_2 1
x_1_12_3 0
x_1_12_4 -5.48172618408671e-16
x_1_12_5 0
x_1_13_0 0
x_1_13_1 0
x_1_13_2 0
x_1_13_3 0
x_1_13_4 0
x_1_13_5 0
x_1_14_0 0
x_1_14_1 0
x_1_14_2 0
x_1_14_3 0
x_1_14_4 0
x_1_14_5 0
x_1_15_0 0
x_1_15_1 0
x_1_15_2 0
x_1_15_3 0
x_1_15_4 0
x_1_15_5 0
x_2_3_0 0
x_2_3_1 0
x_2_3_2 0
x_2_3_3 0
x_2_3_4 0
x_2_3_5 0
x_2_4_0 0
x_2_4_1 0
x_2_4_2 0
x_2_4_3 0
x_2_4_4 0
x_2_4_5 0
x_2_5_0 0
x_2_5_1 0
x_2_5_2 0
x_2_5_3 0
x_2_5_4 0
x_2_5_5 0
x_2_6_0 0
x_2_6_1 0
x_2_6_2 0
x_2_6_3 0
x_2_6_4 0
x_2_6_5 0
x_2_7_0 0
x_2_7_1 -2.4980018054066022e-16
x_2_7_2 1
x_2_7_3 0
x_2_7_4 1
x_2_7_5 1.1102230246251565e-16
x_2_8_0 0
x_2_8_1 0
x_2_8_2 0
x_2_8_3 0
x_2_8_4 0
x_2_8_5 0
x_2_9_0 0
x_2_9_1 0
x_2_9_2 0
x_2_9_3 0
x_2_9_4 0
x_2_9_5 0
x_2_10_0 0
x_2_10_1 0
x_2_10_2 0
x_2_10_3 0
x_2_10_4 0
x_2_10_5 0
x_2_11_0 0
x_2_11_1 0
x_2_11_2 0
x_2_11_3 0
x_2_11_4 0
x_2_11_5 0
x_2_12_0 0
x_2_12_1 9.9999999999999956e-01
x_2_12_2 0
x_2_12_3 0
x_2_12_4 1.0000000000000013e+00
x_2_12_5 0
x_2_13_0 0
x_2_13_1 0
x_2_13_2 0
x_2_13_3 0
x_2_13_4 0
x_2_13_5 0
x_2_14_0 0
x_2_14_1 1
x_2_14_2 1
x_2_14_3 0
x_2_14_4 2.0261570199409107e-15
x_2_14_5 0
x_2_15_0 0
x_2_15_1 0
x_2_15_2 0
x_2_15_3 0
x_2_15_4 0
x_2_15_5 0
x_3_4_0 0
x_3_4_1 0
x_3_4_2 0
x_3_4_3 0
x_3_4_4 0
x_3_4_5 0
x_3_5_0 0
x_3_5_1 -1.6792123247455493e-15
x_3_5_2 0
x_3_5_3 0
x_3_5_4 0
x_3_5_5 0
x_3_6_0 0
x_3_6_1 0
x_3_6_2 1
x_3_6_3 0
x_3_6_4 1
x_3_6_5 0
x_3_7_0 0
x_3_7_1 0
x_3_7_2 0
x_3_7_3 0
x_3_7_4 0
x_3_7_5 0
x_3_8_0 0
x_3_8_1 0
x_3_8_2 0
x_3_8_3 0
x_3_8_4 0
x_3_8_5 0
x_3_9_0 0
x_3_9_1 0
x_3_9_2 0
x_3_9_3 0
x_3_9_4 0
x_3_9_5 0
x_3_10_0 0
x_3_10_1 0
x_3_10_2 0
x_3_10_3 0
x_3_10_4 0
x_3_10_5 0
x_3_11_0 0
x_3_11_1 0
x_3_11_2 0
x_3_11_3 0
x_3_11_4 0
x_3_11_5 0
x_3_12_0 0
x_3_12_1 0
x_3_12_2 0
x_3_12_3 0
x_3_12_4 0
x_3_12_5 0
x_3_13_0 0
x_3_13_1 0
x_3_13_2 0
x_3_13_3 0
x_3_13_4 0
x_3_13_5 0
x_3_14_0 0
x_3_14_1 0
x_3_14_2 0
x_3_14_3 0
x_3_14_4 0
x_3_14_5 0
x_3_15_0 0
x_3_15_1 0
x_3_15_2 0
x_3_15_3 0
x_3_15_4 0
x_3_15_5 0
x_4_5_0 0
x_4_5_1 0
x_4_5_2 0
x_4_5_3 0
x_4_5_4 0
x_4_5_5 0
x_4_6_0 0
x_4_6_1 0
x_4_6_2 0
x_4_6_3 0
x_4_6_4 0
x_4_6_5 0
x_4_7_0 0
x_4_7_1 0
x_4_7_2 0
x_4_7_3 0
x_4_7_4 0
x_4_7_5 0
x_4_8_0 0
x_4_8_1 0
x_4_8_2 0
x_4_8_3 0
x_4_8_4 0
x_4_8_5 0
x_4_9_0 0
x_4_9_1 0
x_4_9_2 0
x_4_9_3 0
x_4_9_4 0
x_4_9_5 0
x_4_10_0 0
x_4_10_1 0
x_4_10_2 0
x_4_10_3 0
x_4_10_4 0
x_4_10_5 0
x_4_11_0 0
x_4_11_1 0
x_4_11_2 0
x_4_11_3 0
x_4_11_4 0
x_4_11_5 0
x_4_12_0 0
x_4_12_1 0
x_4_12_2 0
x_4_12_3 0
x_4_12_4 0
x_4_12_5 0
x_4_13_0 0
x_4_13_1 0
x_4_13_2 0
x_4_13_3 0
x_4_13_4 0
x_4_13_5 0
x_4_14_0 0
x_4_14_1 0
x_4_14_2 0
x_4_14_3 0
x_4_14_4 0
x_4_14_5 0
x_4_15_0 0
x_4_15_1 1
x_4_15_2 0
x_4_15_3 1
x_4_15_4 0
x_4_15_5 0
x_5_6_0 0
x_5_6_1 0
x_5_6_2 0
x_5_6_3 0
x_5_6_4 0
x_5_6_5 0
x_5_7_0 0
x_5_7_1 0
x_5_7_2 0
x_5_7_3 0
x_5_7_4 0
x_5_7_5 0
x_5_8_0 0
x_5_8_1 0
x_5_8_2 0
x_5_8_3 0
x_5_8_4 0
x_5_8_5 0
x_5_9_0 0
x_5_9_1 1
x_5_9_2 1
x_5_9_3 0
x_5_9_4 9.9999999999999645e-01
x_5_9_5 0
x_5_10_0 0
x_5_10_1 0
x_5_10_2 0
x_5_10_3 0
x_5_10_4 0
x_5_10_5 0
x_5_11_0 0
x_5_11_1 0
x_5_11_2 0
x_5_11_3 0
x_5_11_4 0
x_5_11_5 0
x_5_12_0 0
x_5_12_1 0
x_5_12_2 0
x_5_12_3 0
x_5_12_4 0
x_5_12_5 0
x_5_13_0 0
x_5_13_1 0
x_5_13_2 0
x_5_13_3 0
x_5_13_4 0
x_5_13_5 0
x_5_14_0 0
x_5_14_1 0
x_5_14_2 0
x_5_14_3 0
x_5_14_4 -1.1796119636642288e-16
x_5_14_5 0
x_5_15_0 0
x_5_15_1 0
x_5_15_2 0
x_5_15_3 0
x_5_15_4 0
x_5_15_5 0
x_6_7_0 0
x_6_7_1 0
x_6_7_2 0
x_6_7_3 0
x_6_7_4 0
x_6_7_5 0
x_6_8_0 0
x_6_8_1 0
x_6_8_2 0
x_6_8_3 0
x_6_8_4 0
x_6_8_5 0
x_6_9_0 0
x_6_9_1 0
x_6_9_2 1
x_6_9_3 0
x_6_9_4 1.0000000000000027e+00
x_6_9_5 0
x_6_10_0 0
x_6_10_1 0
x_6_10_2 0
x_6_10_3 0
x_6_10_4 0
x_6_10_5 0
x_6_11_0 0
x_6_11_1 0
x_6_11_2 0
x_6_11_3 0
x_6_11_4 0
x_6_11_5 0
x_6_12_0 0
x_6_12_1 0
x_6_12_2 0
x_6_12_3 0
x_6_12_4 0
x_6_12_5 0
x_6_13_0 0
x_6_13_1 0
x_6_13_2 0
x_6_13_3 0
x_6_13_4 0
x_6_13_5 0
x_6_14_0 0
x_6_14_1 0
x_6_14_2 0
x_6_14_3 0
x_6_14_4 0
x_6_14_5 0
x_6_15_0 0
x_6_15_1 0
x_6_15_2 0
x_6_15_3 0
x_6_15_4 0
x_6_15_5 0
x_7_8_0 0
x_7_8_1 0
x_7_8_2 0
x_7_8_3 0
x_7_8_4 0
x_7_8_5 0
x_7_9_0 0
x_7_9_1 0
x_7_9_2 0
x_7_9_3 0
x_7_9_4 0
x_7_9_5 0
x_7_10_0 0
x_7_10_1 0
x_7_10_2 0
x_7_10_3 0
x_7_10_4 0
x_7_10_5 0
x_7_11_0 0
x_7_11_1 0
x_7_11_2 0
x_7_11_3 0
x_7_11_4 0
x_7_11_5 0
x_7_12_0 0
x_7_12_1 0
x_7_12_2 0
x_7_12_3 0
x_7_12_4 0
x_7_12_5 0
x_7_13_0 0
x_7_13_1 1.6653345369377348e-16
x_7_13_2 1
x_7_13_3 0
x_7_13_4 4.1633363423443370e-17
x_7_13_5 0
x_7_14_0 0
x_7_14_1 0
x_7_14_2 0
x_7_14_3 0
x_7_14_4 0
x_7_14_5 0
x_7_15_0 0
x_7_15_1 0
x_7_15_2 0
x_7_15_3 0
x_7_15_4 0
x_7_15_5 0
x_8_9_0 0
x_8_9_1 0
x_8_9_2 0
x_8_9_3 0
x_8_9_4 0
x_8_9_5 0
x_8_10_0 0
x_8_10_1 0
x_8_10_2 0
x_8_10_3 1
x_8_10_4 -2.7755575615628914e-17
x_8_10_5 0
x_8_11_0 0
x_8_11_1 0
x_8_11_2 0
x_8_11_3 0
x_8_11_4 0
x_8_11_5 0
x_8_12_0 0
x_8_12_1 0
x_8_12_2 0
x_8_12_3 0
x_8_12_4 0
x_8_12_5 0
x_8_13_0 0
x_8_13_1 1
x_8_13_2 0
x_8_13_3 0
x_8_13_4 1
x_8_13_5 -1.0408340855860843e-17
x_8_14_0 0
x_8_14_1 0
x_8_14_2 0
x_8_14_3 0
x_8_14_4 0
x_8_14_5 0
x_8_15_0 0
x_8_15_1 1
x_8_15_2 0
x_8_15_3 1
x_8_15_4 1
x_8_15_5 -1.0408340855860843e-17
x_9_10_0 0
x_9_10_1 0
x_9_10_2 0
x_9_10_3 0
x_9_10_4 0
x_9_10_5 0
x_9_11_0 0
x_9_11_1 0
x_9_11_2 0
x_9_11_3 0
x_9_11_4 0
x_9_11_5 0
x_9_12_0 0
x_9_12_1 0
x_9_12_2 0
x_9_12_3 0
x_9_12_4 0
x_9_12_5 0
x_9_13_0 0
x_9_13_1 0
x_9_13_2 0
x_9_13_3 0
x_9_13_4 0
x_9_13_5 0
x_9_14_0 0
x_9_14_1 0
x_9_14_2 0
x_9_14_3 0
x_9_14_4 0
x_9_14_5 0
x_9_15_0 0
x_9_15_1 0
x_9_15_2 0
x_9_15_3 0
x_9_15_4 0
x_9_15_5 0
x_10_11_0 0
x_10_11_1 0
x_10_11_2 1
x_10_11_3 0
x_10_11_4 0
x_10_11_5 0
x_10_12_0 0
x_10_12_1 0
x_10_12_2 0
x_10_12_3 0
x_10_12_4 0
x_10_12_5 0
x_10_13_0 0
x_10_13_1 0
x_10_13_2 0
x_10_13_3 0
x_10_13_4 0
x_10_13_5 0
x_10_14_0 0
x_10_14_1 0
x_10_14_2 0
x_10_14_3 0
x_10_14_4 0
x_10_14_5 0
x_10_15_0 0
x_10_15_1 0
x_10_15_2 0
x_10_15_3 -2.7755575615628914e-17
x_10_15_4 5.5511151231257827e-17
x_10_15_5 5.5511151231257827e-17
x_11_12_0 0
x_11_12_1 0
x_11_12_2 0
x_11_12_3 0
x_11_12_4 0
x_11_12_5 0
x_11_13_0 0
x_11_13_1 0
x_11_13_2 1
x_11_13_3 0
x_11_13_4 1
x_11_13_5 0
x_11_14_0 0
x_11_14_1 0
x_11_14_2 0
x_11_14_3 0
x_11_14_4 1
x_11_14_5 0
x_11_15_0 0
x_11_15_1 0
x_11_15_2 0
x_11_15_3 0
x_11_15_4 0
x_11_15_5 0
x_12_13_0 0
x_12_13_1 0
x_12_13_2 0
x_12_13_3 0
x_12_13_4 0
x_12_13_5 0
x_12_14_0 0
x_12_14_1 3.6082248300317588e-16
x_12_14_2 1
x_12_14_3 0
x_12_14_4 9.9999999999999944e-01
x_12_14_5 0
x_12_15_0 0
x_12_15_1 0
x_12_15_2 0
x_12_15_3 0
x_12_15_4 0
x_12_15_5 0
x_13_14_0 0
x_13_14_1 9.9999999999999978e-01
x_13_14_2 0
x_13_14_3 0
x_13_14_4 0
x_13_14_5 0
x_13_15_0 0
x_13_15_1 0
x_13_15_2 0
x_13_15_3 0
x_13_15_4 -5.2041704279304213e-17
x_13_15_5 0
x_14_15_0 0
x_14_15_1 0
x_14_15_2 0
x_14_15_3 0
x_14_15_4 0
x_14_15_5 0
